\ This file has been generated by DOcplex
\ ENCODING=ISO-8859-1
\Problem name: ContinuousISAConstraints

Minimize
 obj: 1.000001000000 x1 + 1.000002000000 x2 + 1.000004000000 x3
      + 1.000008000000 x4 + 1.000016000000 x5 + 1.000032000000 x6
      + 1.000064000000 x7 + 1.000128000000 x8
Subject To
 c1: x9 - 0.458333333333 x1 = 0
 c2: x10 - 0.041666666667 x1 = 0
 c3: x11 - 0.041666666667 x1 = 0
 c4: x12 - 0.458333333333 x2 = 0
 c5: x13 - 0.041666666667 x2 = 0
 c6: x14 - 0.041666666667 x2 = 0
 c7: x15 - 0.458333333333 x3 = 0
 c8: x16 - 0.041666666667 x3 = 0
 c9: x17 - 0.041666666667 x3 = 0
 c10: x18 - 0.458333333333 x4 = 0
 c11: x19 - 0.041666666667 x4 = 0
 c12: x20 - 0.041666666667 x4 = 0
 c13: x21 - 0.458333333333 x5 = 0
 c14: x22 - 0.041666666667 x5 = 0
 c15: x23 - 0.041666666667 x5 = 0
 c16: x24 - 0.458333333333 x6 = 0
 c17: x25 - 0.041666666667 x6 = 0
 c18: x26 - 0.041666666667 x6 = 0
 c19: x27 - 0.458333333333 x7 = 0
 c20: x28 - 0.041666666667 x7 = 0
 c21: x29 - 0.041666666667 x7 = 0
 c22: x30 - 0.458333333333 x8 = 0
 c23: x31 - 0.041666666667 x8 = 0
 c24: x32 - 0.041666666667 x8 = 0
 c25: x1 - x2 >= 0
 c26: x2 - x3 >= 0
 c27: x3 - x4 >= 0
 c28: x4 - x5 >= 0
 c29: x5 - x6 >= 0
 c30: x6 - x7 >= 0
 c31: x7 - x8 >= 0
 c32: - x9 - x10 - x11 - x12 - x13 - x14 + x33 + x34 + x35 <= 0
 c33: x11 - x12 - x13 - x14 - x35 <= 0
 c34: - x9 - x10 - x11 + x14 - x35 <= 0
 c35: x10 - x12 - x13 - x14 - x34 <= 0
 c36: - x9 - x10 - x11 + x13 - x34 <= 0
 c37: x9 - x12 - x13 - x14 - x33 <= 0
 c38: - x9 - x10 - x11 + x12 - x33 <= 0
 c39: x11 + x14 - x34 <= 0
 c40: x10 + x14 - x33 <= 0
 c41: x11 + x13 - x33 <= 0
 c42: x9 + x14 + x33 + x34 + x35 <= 1
 c43: x11 + x12 + x33 + x34 + x35 <= 1
 c44: x10 + x13 + x33 + x34 + x35 <= 1
 c45: x9 + x13 - x35 <= 1
 c46: x10 + x12 - x35 <= 1
 c47: x9 + x12 - x34 <= 1
 c48: - x9 - x10 - x12 - x13 + x33 + x34 <= 0
 c49: - x9 - x11 - x12 - x13 + x33 + x35 <= 0
 c50: - x9 - x10 - x12 - x14 + x33 + x35 <= 0
 c51: x10 + x11 - x12 - x13 - x34 - x35 <= 0
 c52: - x9 - x10 + x13 + x14 - x34 - x35 <= 0
 c53: - x10 - x11 - x12 - x13 + x34 + x35 <= 0
 c54: - x9 - x10 - x13 - x14 + x34 + x35 <= 0
 c55: x9 + x11 - x12 - x13 - x33 - x35 <= 0
 c56: - x9 - x10 + x12 + x14 - x33 - x35 <= 0
 c57: x9 + x10 - x12 - x13 - x33 - x34 <= 0
 c58: - x9 - x10 + x12 + x13 - x33 - x34 <= 0
 c59: - x9 - x11 - x12 - x14 - x34 - x35 <= 0
 c60: - x9 - x11 - x12 - x14 + x34 + x35 <= 0
 c61: x10 + x11 - x12 - x14 - x33 - x35 <= 0
 c62: - x9 - x11 + x13 + x14 - x33 - x35 <= 0
 c63: - x10 - x11 - x12 - x14 - x33 - x35 <= 0
 c64: - x9 - x11 - x13 - x14 - x33 - x35 <= 0
 c65: x9 + x11 - x12 - x14 - x33 - x34 <= 0
 c66: - x9 - x11 + x12 + x14 - x33 - x34 <= 0
 c67: x9 + x11 - x12 - x14 + x33 + x34 <= 1
 c68: - x9 - x11 + x12 + x14 + x33 + x34 <= 1
 c69: x9 + x10 - x12 - x14 + x33 + x35 <= 1
 c70: - x9 - x11 + x12 + x13 + x33 + x35 <= 1
 c71: x10 + x11 + x13 + x14 - x33 - x34 <= 0
 c72: - x10 - x11 + x13 + x14 + x33 + x34 <= 1
 c73: x10 + x11 - x13 - x14 + x33 + x34 <= 1
 c74: x9 + x11 + x13 + x14 + x33 + x35 <= 1
 c75: x10 + x11 + x12 + x14 + x33 + x35 <= 1
 c76: x9 + x10 + x13 + x14 + x34 + x35 <= 1
 c77: x10 + x11 + x12 + x13 + x34 + x35 <= 1
 c78: - x10 - x11 - x13 - x14 - x33 - x34 <= 0
 c79: x9 + x11 - x13 - x14 + x33 + x35 <= 1
 c80: - x10 - x11 + x12 + x14 + x33 + x35 <= 1
 c81: x9 + x10 - x13 - x14 - x34 - x35 <= 1
 c82: - x10 - x11 + x12 + x13 - x34 - x35 <= 1
 c83: x9 + x11 + x12 + x14 + x34 + x35 <= 1
 c84: x9 + x11 + x12 + x14 - x34 - x35 <= 1
 c85: x9 + x10 + x12 + x14 - x33 - x35 <= 1
 c86: x9 + x11 + x12 + x13 - x33 - x35 <= 1
 c87: x9 + x10 + x12 + x13 + x33 + x34 <= 2
 c88: - x9 - x12 + x33 <= 0
 c89: - x10 - x12 + x34 <= 0
 c90: - x9 - x13 + x34 <= 0
 c91: - x11 - x12 + x35 <= 0
 c92: - x9 - x14 + x35 <= 0
 c93: x9 + x10 + x11 - x12 - x33 - x34 - x35 <= 0
 c94: - x9 + x12 + x13 + x14 - x33 - x34 - x35 <= 0
 c95: - x10 - x13 + x35 <= 0
 c96: - x11 - x13 - x33 - x34 - x35 <= 0
 c97: - x10 - x14 - x33 - x34 - x35 <= 0
 c98: x9 + x10 + x11 - x13 + x33 <= 1
 c99: - x10 + x12 + x13 + x14 + x33 <= 1
 c100: - x11 - x14 + x33 <= 1
 c101: x9 + x10 + x11 - x14 + x34 <= 1
 c102: - x11 + x12 + x13 + x14 + x34 <= 1
 c103: x9 + x10 + x11 + x12 + x13 + x14 + x35 <= 1
 c104: - x15 - x16 - x17 - x33 - x34 - x35 + x36 + x37 + x38 <= 0
 c105: x17 - x33 - x34 - x35 - x38 <= 0
 c106: - x15 - x16 - x17 + x35 - x38 <= 0
 c107: x16 - x33 - x34 - x35 - x37 <= 0
 c108: - x15 - x16 - x17 + x34 - x37 <= 0
 c109: x15 - x33 - x34 - x35 - x36 <= 0
 c110: - x15 - x16 - x17 + x33 - x36 <= 0
 c111: x17 + x35 - x37 <= 0
 c112: x16 + x35 - x36 <= 0
 c113: x17 + x34 - x36 <= 0
 c114: x15 + x35 + x36 + x37 + x38 <= 1
 c115: x17 + x33 + x36 + x37 + x38 <= 1
 c116: x16 + x34 + x36 + x37 + x38 <= 1
 c117: x15 + x34 - x38 <= 1
 c118: x16 + x33 - x38 <= 1
 c119: x15 + x33 - x37 <= 1
 c120: - x15 - x16 - x33 - x34 + x36 + x37 <= 0
 c121: - x15 - x17 - x33 - x34 + x36 + x38 <= 0
 c122: - x15 - x16 - x33 - x35 + x36 + x38 <= 0
 c123: x16 + x17 - x33 - x34 - x37 - x38 <= 0
 c124: - x15 - x16 + x34 + x35 - x37 - x38 <= 0
 c125: - x16 - x17 - x33 - x34 + x37 + x38 <= 0
 c126: - x15 - x16 - x34 - x35 + x37 + x38 <= 0
 c127: x15 + x17 - x33 - x34 - x36 - x38 <= 0
 c128: - x15 - x16 + x33 + x35 - x36 - x38 <= 0
 c129: x15 + x16 - x33 - x34 - x36 - x37 <= 0
 c130: - x15 - x16 + x33 + x34 - x36 - x37 <= 0
 c131: - x15 - x17 - x33 - x35 - x37 - x38 <= 0
 c132: - x15 - x17 - x33 - x35 + x37 + x38 <= 0
 c133: x16 + x17 - x33 - x35 - x36 - x38 <= 0
 c134: - x15 - x17 + x34 + x35 - x36 - x38 <= 0
 c135: - x16 - x17 - x33 - x35 - x36 - x38 <= 0
 c136: - x15 - x17 - x34 - x35 - x36 - x38 <= 0
 c137: x15 + x17 - x33 - x35 - x36 - x37 <= 0
 c138: - x15 - x17 + x33 + x35 - x36 - x37 <= 0
 c139: x15 + x17 - x33 - x35 + x36 + x37 <= 1
 c140: - x15 - x17 + x33 + x35 + x36 + x37 <= 1
 c141: x15 + x16 - x33 - x35 + x36 + x38 <= 1
 c142: - x15 - x17 + x33 + x34 + x36 + x38 <= 1
 c143: x16 + x17 + x34 + x35 - x36 - x37 <= 0
 c144: - x16 - x17 + x34 + x35 + x36 + x37 <= 1
 c145: x16 + x17 - x34 - x35 + x36 + x37 <= 1
 c146: x15 + x17 + x34 + x35 + x36 + x38 <= 1
 c147: x16 + x17 + x33 + x35 + x36 + x38 <= 1
 c148: x15 + x16 + x34 + x35 + x37 + x38 <= 1
 c149: x16 + x17 + x33 + x34 + x37 + x38 <= 1
 c150: - x16 - x17 - x34 - x35 - x36 - x37 <= 0
 c151: x15 + x17 - x34 - x35 + x36 + x38 <= 1
 c152: - x16 - x17 + x33 + x35 + x36 + x38 <= 1
 c153: x15 + x16 - x34 - x35 - x37 - x38 <= 1
 c154: - x16 - x17 + x33 + x34 - x37 - x38 <= 1
 c155: x15 + x17 + x33 + x35 + x37 + x38 <= 1
 c156: x15 + x17 + x33 + x35 - x37 - x38 <= 1
 c157: x15 + x16 + x33 + x35 - x36 - x38 <= 1
 c158: x15 + x17 + x33 + x34 - x36 - x38 <= 1
 c159: x15 + x16 + x33 + x34 + x36 + x37 <= 2
 c160: - x15 - x33 + x36 <= 0
 c161: - x16 - x33 + x37 <= 0
 c162: - x15 - x34 + x37 <= 0
 c163: - x17 - x33 + x38 <= 0
 c164: - x15 - x35 + x38 <= 0
 c165: x15 + x16 + x17 - x33 - x36 - x37 - x38 <= 0
 c166: - x15 + x33 + x34 + x35 - x36 - x37 - x38 <= 0
 c167: - x16 - x34 + x38 <= 0
 c168: - x17 - x34 - x36 - x37 - x38 <= 0
 c169: - x16 - x35 - x36 - x37 - x38 <= 0
 c170: x15 + x16 + x17 - x34 + x36 <= 1
 c171: - x16 + x33 + x34 + x35 + x36 <= 1
 c172: - x17 - x35 + x36 <= 1
 c173: x15 + x16 + x17 - x35 + x37 <= 1
 c174: - x17 + x33 + x34 + x35 + x37 <= 1
 c175: x15 + x16 + x17 + x33 + x34 + x35 + x38 <= 1
 c176: - x18 - x19 - x20 - x36 - x37 - x38 + x39 + x40 + x41 <= 0
 c177: x20 - x36 - x37 - x38 - x41 <= 0
 c178: - x18 - x19 - x20 + x38 - x41 <= 0
 c179: x19 - x36 - x37 - x38 - x40 <= 0
 c180: - x18 - x19 - x20 + x37 - x40 <= 0
 c181: x18 - x36 - x37 - x38 - x39 <= 0
 c182: - x18 - x19 - x20 + x36 - x39 <= 0
 c183: x20 + x38 - x40 <= 0
 c184: x19 + x38 - x39 <= 0
 c185: x20 + x37 - x39 <= 0
 c186: x18 + x38 + x39 + x40 + x41 <= 1
 c187: x20 + x36 + x39 + x40 + x41 <= 1
 c188: x19 + x37 + x39 + x40 + x41 <= 1
 c189: x18 + x37 - x41 <= 1
 c190: x19 + x36 - x41 <= 1
 c191: x18 + x36 - x40 <= 1
 c192: - x18 - x19 - x36 - x37 + x39 + x40 <= 0
 c193: - x18 - x20 - x36 - x37 + x39 + x41 <= 0
 c194: - x18 - x19 - x36 - x38 + x39 + x41 <= 0
 c195: x19 + x20 - x36 - x37 - x40 - x41 <= 0
 c196: - x18 - x19 + x37 + x38 - x40 - x41 <= 0
 c197: - x19 - x20 - x36 - x37 + x40 + x41 <= 0
 c198: - x18 - x19 - x37 - x38 + x40 + x41 <= 0
 c199: x18 + x20 - x36 - x37 - x39 - x41 <= 0
 c200: - x18 - x19 + x36 + x38 - x39 - x41 <= 0
 c201: x18 + x19 - x36 - x37 - x39 - x40 <= 0
 c202: - x18 - x19 + x36 + x37 - x39 - x40 <= 0
 c203: - x18 - x20 - x36 - x38 - x40 - x41 <= 0
 c204: - x18 - x20 - x36 - x38 + x40 + x41 <= 0
 c205: x19 + x20 - x36 - x38 - x39 - x41 <= 0
 c206: - x18 - x20 + x37 + x38 - x39 - x41 <= 0
 c207: - x19 - x20 - x36 - x38 - x39 - x41 <= 0
 c208: - x18 - x20 - x37 - x38 - x39 - x41 <= 0
 c209: x18 + x20 - x36 - x38 - x39 - x40 <= 0
 c210: - x18 - x20 + x36 + x38 - x39 - x40 <= 0
 c211: x18 + x20 - x36 - x38 + x39 + x40 <= 1
 c212: - x18 - x20 + x36 + x38 + x39 + x40 <= 1
 c213: x18 + x19 - x36 - x38 + x39 + x41 <= 1
 c214: - x18 - x20 + x36 + x37 + x39 + x41 <= 1
 c215: x19 + x20 + x37 + x38 - x39 - x40 <= 0
 c216: - x19 - x20 + x37 + x38 + x39 + x40 <= 1
 c217: x19 + x20 - x37 - x38 + x39 + x40 <= 1
 c218: x18 + x20 + x37 + x38 + x39 + x41 <= 1
 c219: x19 + x20 + x36 + x38 + x39 + x41 <= 1
 c220: x18 + x19 + x37 + x38 + x40 + x41 <= 1
 c221: x19 + x20 + x36 + x37 + x40 + x41 <= 1
 c222: - x19 - x20 - x37 - x38 - x39 - x40 <= 0
 c223: x18 + x20 - x37 - x38 + x39 + x41 <= 1
 c224: - x19 - x20 + x36 + x38 + x39 + x41 <= 1
 c225: x18 + x19 - x37 - x38 - x40 - x41 <= 1
 c226: - x19 - x20 + x36 + x37 - x40 - x41 <= 1
 c227: x18 + x20 + x36 + x38 + x40 + x41 <= 1
 c228: x18 + x20 + x36 + x38 - x40 - x41 <= 1
 c229: x18 + x19 + x36 + x38 - x39 - x41 <= 1
 c230: x18 + x20 + x36 + x37 - x39 - x41 <= 1
 c231: x18 + x19 + x36 + x37 + x39 + x40 <= 2
 c232: - x18 - x36 + x39 <= 0
 c233: - x19 - x36 + x40 <= 0
 c234: - x18 - x37 + x40 <= 0
 c235: - x20 - x36 + x41 <= 0
 c236: - x18 - x38 + x41 <= 0
 c237: x18 + x19 + x20 - x36 - x39 - x40 - x41 <= 0
 c238: - x18 + x36 + x37 + x38 - x39 - x40 - x41 <= 0
 c239: - x19 - x37 + x41 <= 0
 c240: - x20 - x37 - x39 - x40 - x41 <= 0
 c241: - x19 - x38 - x39 - x40 - x41 <= 0
 c242: x18 + x19 + x20 - x37 + x39 <= 1
 c243: - x19 + x36 + x37 + x38 + x39 <= 1
 c244: - x20 - x38 + x39 <= 1
 c245: x18 + x19 + x20 - x38 + x40 <= 1
 c246: - x20 + x36 + x37 + x38 + x40 <= 1
 c247: x18 + x19 + x20 + x36 + x37 + x38 + x41 <= 1
 c248: - x21 - x22 - x23 - x39 - x40 - x41 + x42 + x43 + x44 <= 0
 c249: x23 - x39 - x40 - x41 - x44 <= 0
 c250: - x21 - x22 - x23 + x41 - x44 <= 0
 c251: x22 - x39 - x40 - x41 - x43 <= 0
 c252: - x21 - x22 - x23 + x40 - x43 <= 0
 c253: x21 - x39 - x40 - x41 - x42 <= 0
 c254: - x21 - x22 - x23 + x39 - x42 <= 0
 c255: x23 + x41 - x43 <= 0
 c256: x22 + x41 - x42 <= 0
 c257: x23 + x40 - x42 <= 0
 c258: x21 + x41 + x42 + x43 + x44 <= 1
 c259: x23 + x39 + x42 + x43 + x44 <= 1
 c260: x22 + x40 + x42 + x43 + x44 <= 1
 c261: x21 + x40 - x44 <= 1
 c262: x22 + x39 - x44 <= 1
 c263: x21 + x39 - x43 <= 1
 c264: - x21 - x22 - x39 - x40 + x42 + x43 <= 0
 c265: - x21 - x23 - x39 - x40 + x42 + x44 <= 0
 c266: - x21 - x22 - x39 - x41 + x42 + x44 <= 0
 c267: x22 + x23 - x39 - x40 - x43 - x44 <= 0
 c268: - x21 - x22 + x40 + x41 - x43 - x44 <= 0
 c269: - x22 - x23 - x39 - x40 + x43 + x44 <= 0
 c270: - x21 - x22 - x40 - x41 + x43 + x44 <= 0
 c271: x21 + x23 - x39 - x40 - x42 - x44 <= 0
 c272: - x21 - x22 + x39 + x41 - x42 - x44 <= 0
 c273: x21 + x22 - x39 - x40 - x42 - x43 <= 0
 c274: - x21 - x22 + x39 + x40 - x42 - x43 <= 0
 c275: - x21 - x23 - x39 - x41 - x43 - x44 <= 0
 c276: - x21 - x23 - x39 - x41 + x43 + x44 <= 0
 c277: x22 + x23 - x39 - x41 - x42 - x44 <= 0
 c278: - x21 - x23 + x40 + x41 - x42 - x44 <= 0
 c279: - x22 - x23 - x39 - x41 - x42 - x44 <= 0
 c280: - x21 - x23 - x40 - x41 - x42 - x44 <= 0
 c281: x21 + x23 - x39 - x41 - x42 - x43 <= 0
 c282: - x21 - x23 + x39 + x41 - x42 - x43 <= 0
 c283: x21 + x23 - x39 - x41 + x42 + x43 <= 1
 c284: - x21 - x23 + x39 + x41 + x42 + x43 <= 1
 c285: x21 + x22 - x39 - x41 + x42 + x44 <= 1
 c286: - x21 - x23 + x39 + x40 + x42 + x44 <= 1
 c287: x22 + x23 + x40 + x41 - x42 - x43 <= 0
 c288: - x22 - x23 + x40 + x41 + x42 + x43 <= 1
 c289: x22 + x23 - x40 - x41 + x42 + x43 <= 1
 c290: x21 + x23 + x40 + x41 + x42 + x44 <= 1
 c291: x22 + x23 + x39 + x41 + x42 + x44 <= 1
 c292: x21 + x22 + x40 + x41 + x43 + x44 <= 1
 c293: x22 + x23 + x39 + x40 + x43 + x44 <= 1
 c294: - x22 - x23 - x40 - x41 - x42 - x43 <= 0
 c295: x21 + x23 - x40 - x41 + x42 + x44 <= 1
 c296: - x22 - x23 + x39 + x41 + x42 + x44 <= 1
 c297: x21 + x22 - x40 - x41 - x43 - x44 <= 1
 c298: - x22 - x23 + x39 + x40 - x43 - x44 <= 1
 c299: x21 + x23 + x39 + x41 + x43 + x44 <= 1
 c300: x21 + x23 + x39 + x41 - x43 - x44 <= 1
 c301: x21 + x22 + x39 + x41 - x42 - x44 <= 1
 c302: x21 + x23 + x39 + x40 - x42 - x44 <= 1
 c303: x21 + x22 + x39 + x40 + x42 + x43 <= 2
 c304: - x21 - x39 + x42 <= 0
 c305: - x22 - x39 + x43 <= 0
 c306: - x21 - x40 + x43 <= 0
 c307: - x23 - x39 + x44 <= 0
 c308: - x21 - x41 + x44 <= 0
 c309: x21 + x22 + x23 - x39 - x42 - x43 - x44 <= 0
 c310: - x21 + x39 + x40 + x41 - x42 - x43 - x44 <= 0
 c311: - x22 - x40 + x44 <= 0
 c312: - x23 - x40 - x42 - x43 - x44 <= 0
 c313: - x22 - x41 - x42 - x43 - x44 <= 0
 c314: x21 + x22 + x23 - x40 + x42 <= 1
 c315: - x22 + x39 + x40 + x41 + x42 <= 1
 c316: - x23 - x41 + x42 <= 1
 c317: x21 + x22 + x23 - x41 + x43 <= 1
 c318: - x23 + x39 + x40 + x41 + x43 <= 1
 c319: x21 + x22 + x23 + x39 + x40 + x41 + x44 <= 1
 c320: - x24 - x25 - x26 - x42 - x43 - x44 + x45 + x46 + x47 <= 0
 c321: x26 - x42 - x43 - x44 - x47 <= 0
 c322: - x24 - x25 - x26 + x44 - x47 <= 0
 c323: x25 - x42 - x43 - x44 - x46 <= 0
 c324: - x24 - x25 - x26 + x43 - x46 <= 0
 c325: x24 - x42 - x43 - x44 - x45 <= 0
 c326: - x24 - x25 - x26 + x42 - x45 <= 0
 c327: x26 + x44 - x46 <= 0
 c328: x25 + x44 - x45 <= 0
 c329: x26 + x43 - x45 <= 0
 c330: x24 + x44 + x45 + x46 + x47 <= 1
 c331: x26 + x42 + x45 + x46 + x47 <= 1
 c332: x25 + x43 + x45 + x46 + x47 <= 1
 c333: x24 + x43 - x47 <= 1
 c334: x25 + x42 - x47 <= 1
 c335: x24 + x42 - x46 <= 1
 c336: - x24 - x25 - x42 - x43 + x45 + x46 <= 0
 c337: - x24 - x26 - x42 - x43 + x45 + x47 <= 0
 c338: - x24 - x25 - x42 - x44 + x45 + x47 <= 0
 c339: x25 + x26 - x42 - x43 - x46 - x47 <= 0
 c340: - x24 - x25 + x43 + x44 - x46 - x47 <= 0
 c341: - x25 - x26 - x42 - x43 + x46 + x47 <= 0
 c342: - x24 - x25 - x43 - x44 + x46 + x47 <= 0
 c343: x24 + x26 - x42 - x43 - x45 - x47 <= 0
 c344: - x24 - x25 + x42 + x44 - x45 - x47 <= 0
 c345: x24 + x25 - x42 - x43 - x45 - x46 <= 0
 c346: - x24 - x25 + x42 + x43 - x45 - x46 <= 0
 c347: - x24 - x26 - x42 - x44 - x46 - x47 <= 0
 c348: - x24 - x26 - x42 - x44 + x46 + x47 <= 0
 c349: x25 + x26 - x42 - x44 - x45 - x47 <= 0
 c350: - x24 - x26 + x43 + x44 - x45 - x47 <= 0
 c351: - x25 - x26 - x42 - x44 - x45 - x47 <= 0
 c352: - x24 - x26 - x43 - x44 - x45 - x47 <= 0
 c353: x24 + x26 - x42 - x44 - x45 - x46 <= 0
 c354: - x24 - x26 + x42 + x44 - x45 - x46 <= 0
 c355: x24 + x26 - x42 - x44 + x45 + x46 <= 1
 c356: - x24 - x26 + x42 + x44 + x45 + x46 <= 1
 c357: x24 + x25 - x42 - x44 + x45 + x47 <= 1
 c358: - x24 - x26 + x42 + x43 + x45 + x47 <= 1
 c359: x25 + x26 + x43 + x44 - x45 - x46 <= 0
 c360: - x25 - x26 + x43 + x44 + x45 + x46 <= 1
 c361: x25 + x26 - x43 - x44 + x45 + x46 <= 1
 c362: x24 + x26 + x43 + x44 + x45 + x47 <= 1
 c363: x25 + x26 + x42 + x44 + x45 + x47 <= 1
 c364: x24 + x25 + x43 + x44 + x46 + x47 <= 1
 c365: x25 + x26 + x42 + x43 + x46 + x47 <= 1
 c366: - x25 - x26 - x43 - x44 - x45 - x46 <= 0
 c367: x24 + x26 - x43 - x44 + x45 + x47 <= 1
 c368: - x25 - x26 + x42 + x44 + x45 + x47 <= 1
 c369: x24 + x25 - x43 - x44 - x46 - x47 <= 1
 c370: - x25 - x26 + x42 + x43 - x46 - x47 <= 1
 c371: x24 + x26 + x42 + x44 + x46 + x47 <= 1
 c372: x24 + x26 + x42 + x44 - x46 - x47 <= 1
 c373: x24 + x25 + x42 + x44 - x45 - x47 <= 1
 c374: x24 + x26 + x42 + x43 - x45 - x47 <= 1
 c375: x24 + x25 + x42 + x43 + x45 + x46 <= 2
 c376: - x24 - x42 + x45 <= 0
 c377: - x25 - x42 + x46 <= 0
 c378: - x24 - x43 + x46 <= 0
 c379: - x26 - x42 + x47 <= 0
 c380: - x24 - x44 + x47 <= 0
 c381: x24 + x25 + x26 - x42 - x45 - x46 - x47 <= 0
 c382: - x24 + x42 + x43 + x44 - x45 - x46 - x47 <= 0
 c383: - x25 - x43 + x47 <= 0
 c384: - x26 - x43 - x45 - x46 - x47 <= 0
 c385: - x25 - x44 - x45 - x46 - x47 <= 0
 c386: x24 + x25 + x26 - x43 + x45 <= 1
 c387: - x25 + x42 + x43 + x44 + x45 <= 1
 c388: - x26 - x44 + x45 <= 1
 c389: x24 + x25 + x26 - x44 + x46 <= 1
 c390: - x26 + x42 + x43 + x44 + x46 <= 1
 c391: x24 + x25 + x26 + x42 + x43 + x44 + x47 <= 1
 c392: - x27 - x28 - x29 - x45 - x46 - x47 + x48 + x49 + x50 <= 0
 c393: x29 - x45 - x46 - x47 - x50 <= 0
 c394: - x27 - x28 - x29 + x47 - x50 <= 0
 c395: x28 - x45 - x46 - x47 - x49 <= 0
 c396: - x27 - x28 - x29 + x46 - x49 <= 0
 c397: x27 - x45 - x46 - x47 - x48 <= 0
 c398: - x27 - x28 - x29 + x45 - x48 <= 0
 c399: x29 + x47 - x49 <= 0
 c400: x28 + x47 - x48 <= 0
 c401: x29 + x46 - x48 <= 0
 c402: x27 + x47 + x48 + x49 + x50 <= 1
 c403: x29 + x45 + x48 + x49 + x50 <= 1
 c404: x28 + x46 + x48 + x49 + x50 <= 1
 c405: x27 + x46 - x50 <= 1
 c406: x28 + x45 - x50 <= 1
 c407: x27 + x45 - x49 <= 1
 c408: - x27 - x28 - x45 - x46 + x48 + x49 <= 0
 c409: - x27 - x29 - x45 - x46 + x48 + x50 <= 0
 c410: - x27 - x28 - x45 - x47 + x48 + x50 <= 0
 c411: x28 + x29 - x45 - x46 - x49 - x50 <= 0
 c412: - x27 - x28 + x46 + x47 - x49 - x50 <= 0
 c413: - x28 - x29 - x45 - x46 + x49 + x50 <= 0
 c414: - x27 - x28 - x46 - x47 + x49 + x50 <= 0
 c415: x27 + x29 - x45 - x46 - x48 - x50 <= 0
 c416: - x27 - x28 + x45 + x47 - x48 - x50 <= 0
 c417: x27 + x28 - x45 - x46 - x48 - x49 <= 0
 c418: - x27 - x28 + x45 + x46 - x48 - x49 <= 0
 c419: - x27 - x29 - x45 - x47 - x49 - x50 <= 0
 c420: - x27 - x29 - x45 - x47 + x49 + x50 <= 0
 c421: x28 + x29 - x45 - x47 - x48 - x50 <= 0
 c422: - x27 - x29 + x46 + x47 - x48 - x50 <= 0
 c423: - x28 - x29 - x45 - x47 - x48 - x50 <= 0
 c424: - x27 - x29 - x46 - x47 - x48 - x50 <= 0
 c425: x27 + x29 - x45 - x47 - x48 - x49 <= 0
 c426: - x27 - x29 + x45 + x47 - x48 - x49 <= 0
 c427: x27 + x29 - x45 - x47 + x48 + x49 <= 1
 c428: - x27 - x29 + x45 + x47 + x48 + x49 <= 1
 c429: x27 + x28 - x45 - x47 + x48 + x50 <= 1
 c430: - x27 - x29 + x45 + x46 + x48 + x50 <= 1
 c431: x28 + x29 + x46 + x47 - x48 - x49 <= 0
 c432: - x28 - x29 + x46 + x47 + x48 + x49 <= 1
 c433: x28 + x29 - x46 - x47 + x48 + x49 <= 1
 c434: x27 + x29 + x46 + x47 + x48 + x50 <= 1
 c435: x28 + x29 + x45 + x47 + x48 + x50 <= 1
 c436: x27 + x28 + x46 + x47 + x49 + x50 <= 1
 c437: x28 + x29 + x45 + x46 + x49 + x50 <= 1
 c438: - x28 - x29 - x46 - x47 - x48 - x49 <= 0
 c439: x27 + x29 - x46 - x47 + x48 + x50 <= 1
 c440: - x28 - x29 + x45 + x47 + x48 + x50 <= 1
 c441: x27 + x28 - x46 - x47 - x49 - x50 <= 1
 c442: - x28 - x29 + x45 + x46 - x49 - x50 <= 1
 c443: x27 + x29 + x45 + x47 + x49 + x50 <= 1
 c444: x27 + x29 + x45 + x47 - x49 - x50 <= 1
 c445: x27 + x28 + x45 + x47 - x48 - x50 <= 1
 c446: x27 + x29 + x45 + x46 - x48 - x50 <= 1
 c447: x27 + x28 + x45 + x46 + x48 + x49 <= 2
 c448: - x27 - x45 + x48 <= 0
 c449: - x28 - x45 + x49 <= 0
 c450: - x27 - x46 + x49 <= 0
 c451: - x29 - x45 + x50 <= 0
 c452: - x27 - x47 + x50 <= 0
 c453: x27 + x28 + x29 - x45 - x48 - x49 - x50 <= 0
 c454: - x27 + x45 + x46 + x47 - x48 - x49 - x50 <= 0
 c455: - x28 - x46 + x50 <= 0
 c456: - x29 - x46 - x48 - x49 - x50 <= 0
 c457: - x28 - x47 - x48 - x49 - x50 <= 0
 c458: x27 + x28 + x29 - x46 + x48 <= 1
 c459: - x28 + x45 + x46 + x47 + x48 <= 1
 c460: - x29 - x47 + x48 <= 1
 c461: x27 + x28 + x29 - x47 + x49 <= 1
 c462: - x29 + x45 + x46 + x47 + x49 <= 1
 c463: x27 + x28 + x29 + x45 + x46 + x47 + x50 <= 1
 c464: - x30 - x31 - x32 - x48 - x49 - x50 + x51 + x52 + x53 <= 0
 c465: x32 - x48 - x49 - x50 - x53 <= 0
 c466: - x30 - x31 - x32 + x50 - x53 <= 0
 c467: x31 - x48 - x49 - x50 - x52 <= 0
 c468: - x30 - x31 - x32 + x49 - x52 <= 0
 c469: x30 - x48 - x49 - x50 - x51 <= 0
 c470: - x30 - x31 - x32 + x48 - x51 <= 0
 c471: x32 + x50 - x52 <= 0
 c472: x31 + x50 - x51 <= 0
 c473: x32 + x49 - x51 <= 0
 c474: x30 + x50 + x51 + x52 + x53 <= 1
 c475: x32 + x48 + x51 + x52 + x53 <= 1
 c476: x31 + x49 + x51 + x52 + x53 <= 1
 c477: x30 + x49 - x53 <= 1
 c478: x31 + x48 - x53 <= 1
 c479: x30 + x48 - x52 <= 1
 c480: - x30 - x31 - x48 - x49 + x51 + x52 <= 0
 c481: - x30 - x32 - x48 - x49 + x51 + x53 <= 0
 c482: - x30 - x31 - x48 - x50 + x51 + x53 <= 0
 c483: x31 + x32 - x48 - x49 - x52 - x53 <= 0
 c484: - x30 - x31 + x49 + x50 - x52 - x53 <= 0
 c485: - x31 - x32 - x48 - x49 + x52 + x53 <= 0
 c486: - x30 - x31 - x49 - x50 + x52 + x53 <= 0
 c487: x30 + x32 - x48 - x49 - x51 - x53 <= 0
 c488: - x30 - x31 + x48 + x50 - x51 - x53 <= 0
 c489: x30 + x31 - x48 - x49 - x51 - x52 <= 0
 c490: - x30 - x31 + x48 + x49 - x51 - x52 <= 0
 c491: - x30 - x32 - x48 - x50 - x52 - x53 <= 0
 c492: - x30 - x32 - x48 - x50 + x52 + x53 <= 0
 c493: x31 + x32 - x48 - x50 - x51 - x53 <= 0
 c494: - x30 - x32 + x49 + x50 - x51 - x53 <= 0
 c495: - x31 - x32 - x48 - x50 - x51 - x53 <= 0
 c496: - x30 - x32 - x49 - x50 - x51 - x53 <= 0
 c497: x30 + x32 - x48 - x50 - x51 - x52 <= 0
 c498: - x30 - x32 + x48 + x50 - x51 - x52 <= 0
 c499: x30 + x32 - x48 - x50 + x51 + x52 <= 1
 c500: - x30 - x32 + x48 + x50 + x51 + x52 <= 1
 c501: x30 + x31 - x48 - x50 + x51 + x53 <= 1
 c502: - x30 - x32 + x48 + x49 + x51 + x53 <= 1
 c503: x31 + x32 + x49 + x50 - x51 - x52 <= 0
 c504: - x31 - x32 + x49 + x50 + x51 + x52 <= 1
 c505: x31 + x32 - x49 - x50 + x51 + x52 <= 1
 c506: x30 + x32 + x49 + x50 + x51 + x53 <= 1
 c507: x31 + x32 + x48 + x50 + x51 + x53 <= 1
 c508: x30 + x31 + x49 + x50 + x52 + x53 <= 1
 c509: x31 + x32 + x48 + x49 + x52 + x53 <= 1
 c510: - x31 - x32 - x49 - x50 - x51 - x52 <= 0
 c511: x30 + x32 - x49 - x50 + x51 + x53 <= 1
 c512: - x31 - x32 + x48 + x50 + x51 + x53 <= 1
 c513: x30 + x31 - x49 - x50 - x52 - x53 <= 1
 c514: - x31 - x32 + x48 + x49 - x52 - x53 <= 1
 c515: x30 + x32 + x48 + x50 + x52 + x53 <= 1
 c516: x30 + x32 + x48 + x50 - x52 - x53 <= 1
 c517: x30 + x31 + x48 + x50 - x51 - x53 <= 1
 c518: x30 + x32 + x48 + x49 - x51 - x53 <= 1
 c519: x30 + x31 + x48 + x49 + x51 + x52 <= 2
 c520: - x30 - x48 + x51 <= 0
 c521: - x31 - x48 + x52 <= 0
 c522: - x30 - x49 + x52 <= 0
 c523: - x32 - x48 + x53 <= 0
 c524: - x30 - x50 + x53 <= 0
 c525: x30 + x31 + x32 - x48 - x51 - x52 - x53 <= 0
 c526: - x30 + x48 + x49 + x50 - x51 - x52 - x53 <= 0
 c527: - x31 - x49 + x53 <= 0
 c528: - x32 - x49 - x51 - x52 - x53 <= 0
 c529: - x31 - x50 - x51 - x52 - x53 <= 0
 c530: x30 + x31 + x32 - x49 + x51 <= 1
 c531: - x31 + x48 + x49 + x50 + x51 <= 1
 c532: - x32 - x50 + x51 <= 1
 c533: x30 + x31 + x32 - x50 + x52 <= 1
 c534: - x32 + x48 + x49 + x50 + x52 <= 1
 c535: x30 + x31 + x32 + x48 + x49 + x50 + x53 <= 1

Bounds
       x1 <= 1
       x2 <= 1
       x3 <= 1
       x4 <= 1
       x5 <= 1
       x6 <= 1
       x7 <= 1
       x8 <= 1
 -1 <= x9 <= 1
 -1 <= x10 <= 1
 -1 <= x11 <= 1
 -1 <= x12 <= 1
 -1 <= x13 <= 1
 -1 <= x14 <= 1
 -1 <= x15 <= 1
 -1 <= x16 <= 1
 -1 <= x17 <= 1
 -1 <= x18 <= 1
 -1 <= x19 <= 1
 -1 <= x20 <= 1
 -1 <= x21 <= 1
 -1 <= x22 <= 1
 -1 <= x23 <= 1
 -1 <= x24 <= 1
 -1 <= x25 <= 1
 -1 <= x26 <= 1
 -1 <= x27 <= 1
 -1 <= x28 <= 1
 -1 <= x29 <= 1
 -1 <= x30 <= 1
 -1 <= x31 <= 1
 -1 <= x32 <= 1
 -1 <= x33 <= 1
 -1 <= x34 <= 1
 -1 <= x35 <= 1
 -1 <= x36 <= 1
 -1 <= x37 <= 1
 -1 <= x38 <= 1
 -1 <= x39 <= 1
 -1 <= x40 <= 1
 -1 <= x41 <= 1
 -1 <= x42 <= 1
 -1 <= x43 <= 1
 -1 <= x44 <= 1
 -1 <= x45 <= 1
 -1 <= x46 <= 1
 -1 <= x47 <= 1
 -1 <= x48 <= 1
 -1 <= x49 <= 1
 -1 <= x50 <= 1
 -1 <= x51 <= 1
 -1 <= x52 <= 1
 -1 <= x53 <= 1
End
